c A SAT instance generated from a 3-CNF formula that had 18 clauses and 9 variables
p cnf 9 18
4 5 -2 0
-1 -5 -4 0
6 8 7 0
6 -3 1 0
3 -9 -4 0
4 5 6 0
-6 1 2 0
3 5 4 0
2 -1 -3 0
4 -8 -7 0
8 5 -1 0
-1 -4 2 0
3 -9 6 0
7 9 -5 0
4 -9 -3 0
9 -4 -3 0
3 -8 5 0
-4 2 7 0
